1 70 97 6 5 89 73 8 50 11 28 21 83 20 26 27 12 19 75 44 100 37 67 52 25 22 41 61 98 59 81 33 69 35 64 29 60 39 3 48 7 43 86 45 40 9 54 49 17 53 66 76 85 87 56 24 57 92 36 93 18 63 2 65 4 82 47 42 78 71 72 74 68 84 38 77 99 95 96 32 23 31 46 51 90 79 88 80 30 91 58 16 94 34 62 55 14 13 15 